(set-logic QF_LRA)
(declare-fun fluent_ready_i0_t0@1 () Bool)
(declare-fun fluent_ready_i0_t1@1 () Bool)
(declare-fun fluent_started_i0_t0@0 () Bool)
(declare-fun fluent_started_i0_t1@0 () Bool)
(declare-fun fluent_started_i0_t2@0 () Bool)
(declare-fun fluent_started_i0_t3@0 () Bool)
(declare-fun fluent_ready_i0_t2@1 () Bool)
(declare-fun fluent_ready_i0_t0@0 () Bool)
(declare-fun fluent_ready_i0_t1@0 () Bool)
(declare-fun fluent_ready_i0_t2@0 () Bool)
(declare-fun fluent_ready_i0_t3@0 () Bool)
(declare-fun fluent_ready_i0_t3@1 () Bool)
(declare-fun fluent_busy_@0 () Bool)
(declare-fun fluent_started_i0_t0@1 () Bool)
(declare-fun fluent_treated_i0_t0@0 () Bool)
(declare-fun fluent_treated_i0_t1@0 () Bool)
(declare-fun fluent_treated_i0_t2@0 () Bool)
(declare-fun fluent_treated_i0_t3@0 () Bool)
(declare-fun fluent_started_i0_t2@1 () Bool)
(declare-fun fluent_started_i0_t3@1 () Bool)
(declare-fun fluent_treated_i0_t0@1 () Bool)
(declare-fun fluent_treated_i0_t1@1 () Bool)
(declare-fun fluent_treated_i0_t2@1 () Bool)
(declare-fun fluent_treated_i0_t3@1 () Bool)
(declare-fun fluent_busy_@1 () Bool)
(declare-fun fluent_counter_t0@1 () Real)
(declare-fun fluent_counter_t1@1 () Real)
(declare-fun fluent_counter_t0@0 () Real)
(declare-fun fluent_counter_t2@1 () Real)
(declare-fun fluent_counter_t1@0 () Real)
(declare-fun fluent_counter_t2@0 () Real)
(declare-fun fluent_counter_t3@1 () Real)
(declare-fun fluent_counter_t3@0 () Real)
(declare-fun fluent_counter_t0@2 () Real)
(declare-fun fluent_counter_t1@2 () Real)
(declare-fun dur_make_treatment@1 () Real)
(declare-fun fluent_counter_t2@2 () Real)
(declare-fun fluent_counter_t3@2 () Real)
(declare-fun t@1 () Real)
(declare-fun t@2 () Real)
(declare-fun parameter_make_treatment_t@1 () Real)
(declare-fun fluent_started_i0_t0@2 () Bool)
(declare-fun fluent_started_i0_t1@2 () Bool)
(declare-fun fluent_started_i0_t2@2 () Bool)
(declare-fun fluent_started_i0_t3@2 () Bool)
(declare-fun parameter_make_treatment_i@1 () Real)
(declare-fun fluent_treated_i0_t0@2 () Bool)
(declare-fun fluent_started_i0_t1@1 () Bool)
(declare-fun fluent_treated_i0_t1@2 () Bool)
(declare-fun fluent_treated_i0_t2@2 () Bool)
(declare-fun fluent_treated_i0_t3@2 () Bool)
(declare-fun parameter_make_treatment_next@1 () Real)
(declare-fun fluent_busy_@2 () Bool)
(declare-fun parameter_make_treatment_t@2 () Real)
(declare-fun parameter_make_treatment_i@2 () Real)
(declare-fun fluent_ready_i0_t0@2 () Bool)
(declare-fun fluent_ready_i0_t1@2 () Bool)
(declare-fun fluent_ready_i0_t2@2 () Bool)
(declare-fun fluent_ready_i0_t3@2 () Bool)
(declare-fun act_make_treatment@1 () Bool)
(declare-fun dur_make_treatment@2 () Real)
(declare-fun parameter_make_treatment_next@2 () Real)
(declare-fun act_make_treatment@2 () Bool)
(assert (let ((.def_0 (<= fluent_counter_t3@2 31.0))) (let ((.def_1 (<= 0.0 fluent_counter_t3@2))) (let ((.def_2 (<= fluent_counter_t2@2 31.0))) (let ((.def_3 (<= 0.0 fluent_counter_t2@2))) (let ((.def_4 (<= fluent_counter_t1@2 31.0))) (let ((.def_5 (<= 0.0 fluent_counter_t1@2))) (let ((.def_6 (<= fluent_counter_t0@2 31.0))) (let ((.def_7 (<= 0.0 fluent_counter_t0@2))) (let ((.def_8 (= parameter_make_treatment_i@2 0.0))) (let ((.def_9 (= parameter_make_treatment_t@2 4.0))) (let ((.def_10 (= parameter_make_treatment_t@2 3.0))) (let ((.def_11 (= parameter_make_treatment_t@2 2.0))) (let ((.def_12 (= parameter_make_treatment_t@2 1.0))) (let ((.def_13 (or .def_12 .def_11 .def_10 .def_9))) (let ((.def_14 (= parameter_make_treatment_next@2 4.0))) (let ((.def_15 (= parameter_make_treatment_next@2 3.0))) (let ((.def_16 (= parameter_make_treatment_next@2 2.0))) (let ((.def_17 (= parameter_make_treatment_next@2 1.0))) (let ((.def_18 (or .def_17 .def_16 .def_15 .def_14))) (let ((.def_19 (and act_make_treatment@2 true .def_9))) (let ((.def_20 (= fluent_counter_t3@1 fluent_counter_t3@2))) (let ((.def_21 (not .def_20))) (let ((.def_22 (=> .def_21 .def_19))) (let ((.def_23 (and act_make_treatment@2 true .def_10))) (let ((.def_24 (= fluent_counter_t2@1 fluent_counter_t2@2))) (let ((.def_25 (not .def_24))) (let ((.def_26 (=> .def_25 .def_23))) (let ((.def_27 (and act_make_treatment@2 true .def_11))) (let ((.def_28 (= fluent_counter_t1@1 fluent_counter_t1@2))) (let ((.def_29 (not .def_28))) (let ((.def_30 (=> .def_29 .def_27))) (let ((.def_31 (and act_make_treatment@2 true .def_12))) (let ((.def_32 (= fluent_counter_t0@1 fluent_counter_t0@2))) (let ((.def_33 (not .def_32))) (let ((.def_34 (=> .def_33 .def_31))) (let ((.def_35 (+ t@2 10.0))) (let ((.def_36 (= t@2 .def_35))) (let ((.def_37 (and act_make_treatment@2 true .def_36 .def_8 .def_14))) (let ((.def_38 (= parameter_make_treatment_next@1 4.0))) (let ((.def_39 (= parameter_make_treatment_i@1 0.0))) (let ((.def_40 (+ t@1 10.0))) (let ((.def_41 (= t@2 .def_40))) (let ((.def_42 (and act_make_treatment@1 true .def_41 .def_39 .def_38))) (let ((.def_43 (and .def_42 .def_37))) (let ((.def_44 (not .def_43))) (let ((.def_45 (or .def_42 .def_37))) (let ((.def_46 (= fluent_ready_i0_t3@1 fluent_ready_i0_t3@2))) (let ((.def_47 (not .def_46))) (let ((.def_48 (=> .def_47 .def_45))) (let ((.def_49 (and act_make_treatment@2 true .def_36 .def_8 .def_15))) (let ((.def_50 (= parameter_make_treatment_next@1 3.0))) (let ((.def_51 (and act_make_treatment@1 true .def_41 .def_39 .def_50))) (let ((.def_52 (and .def_51 .def_49))) (let ((.def_53 (not .def_52))) (let ((.def_54 (or .def_51 .def_49))) (let ((.def_55 (= fluent_ready_i0_t2@1 fluent_ready_i0_t2@2))) (let ((.def_56 (not .def_55))) (let ((.def_57 (=> .def_56 .def_54))) (let ((.def_58 (and act_make_treatment@2 true .def_36 .def_8 .def_16))) (let ((.def_59 (= parameter_make_treatment_next@1 2.0))) (let ((.def_60 (and act_make_treatment@1 true .def_41 .def_39 .def_59))) (let ((.def_61 (and .def_60 .def_58))) (let ((.def_62 (not .def_61))) (let ((.def_63 (or .def_60 .def_58))) (let ((.def_64 (= fluent_ready_i0_t1@1 fluent_ready_i0_t1@2))) (let ((.def_65 (not .def_64))) (let ((.def_66 (=> .def_65 .def_63))) (let ((.def_67 (and act_make_treatment@2 true .def_36 .def_8 .def_17))) (let ((.def_68 (= parameter_make_treatment_next@1 1.0))) (let ((.def_69 (and act_make_treatment@1 true .def_41 .def_39 .def_68))) (let ((.def_70 (and .def_69 .def_67))) (let ((.def_71 (not .def_70))) (let ((.def_72 (or .def_69 .def_67))) (let ((.def_73 (= fluent_ready_i0_t0@1 fluent_ready_i0_t0@2))) (let ((.def_74 (not .def_73))) (let ((.def_75 (=> .def_74 .def_72))) (let ((.def_76 (and act_make_treatment@2 true .def_8 .def_9))) (let ((.def_77 (= fluent_started_i0_t3@1 fluent_started_i0_t3@2))) (let ((.def_78 (not .def_77))) (let ((.def_79 (=> .def_78 .def_76))) (let ((.def_80 (and act_make_treatment@2 true .def_8 .def_10))) (let ((.def_81 (= fluent_started_i0_t2@1 fluent_started_i0_t2@2))) (let ((.def_82 (not .def_81))) (let ((.def_83 (=> .def_82 .def_80))) (let ((.def_84 (and act_make_treatment@2 true .def_8 .def_11))) (let ((.def_85 (= fluent_started_i0_t1@1 fluent_started_i0_t1@2))) (let ((.def_86 (not .def_85))) (let ((.def_87 (=> .def_86 .def_84))) (let ((.def_88 (and act_make_treatment@2 true .def_8 .def_12))) (let ((.def_89 (= fluent_started_i0_t0@1 fluent_started_i0_t0@2))) (let ((.def_90 (not .def_89))) (let ((.def_91 (=> .def_90 .def_88))) (let ((.def_92 (+ t@2 4.0))) (let ((.def_93 (= t@2 .def_92))) (let ((.def_94 (and act_make_treatment@2 true .def_93 .def_8 .def_9))) (let ((.def_95 (= parameter_make_treatment_t@1 4.0))) (let ((.def_96 (+ t@1 4.0))) (let ((.def_97 (= t@2 .def_96))) (let ((.def_98 (and act_make_treatment@1 true .def_97 .def_39 .def_95))) (let ((.def_99 (and .def_98 .def_94))) (let ((.def_100 (not .def_99))) (let ((.def_101 (or .def_98 .def_94))) (let ((.def_102 (= fluent_treated_i0_t3@1 fluent_treated_i0_t3@2))) (let ((.def_103 (not .def_102))) (let ((.def_104 (=> .def_103 .def_101))) (let ((.def_105 (and act_make_treatment@2 true .def_93 .def_8 .def_10))) (let ((.def_106 (= parameter_make_treatment_t@1 3.0))) (let ((.def_107 (and act_make_treatment@1 true .def_97 .def_39 .def_106))) (let ((.def_108 (and .def_107 .def_105))) (let ((.def_109 (not .def_108))) (let ((.def_110 (or .def_107 .def_105))) (let ((.def_111 (= fluent_treated_i0_t2@1 fluent_treated_i0_t2@2))) (let ((.def_112 (not .def_111))) (let ((.def_113 (=> .def_112 .def_110))) (let ((.def_114 (and act_make_treatment@2 true .def_93 .def_8 .def_11))) (let ((.def_115 (= parameter_make_treatment_t@1 2.0))) (let ((.def_116 (and act_make_treatment@1 true .def_97 .def_39 .def_115))) (let ((.def_117 (and .def_116 .def_114))) (let ((.def_118 (not .def_117))) (let ((.def_119 (or .def_116 .def_114))) (let ((.def_120 (= fluent_treated_i0_t1@1 fluent_treated_i0_t1@2))) (let ((.def_121 (not .def_120))) (let ((.def_122 (=> .def_121 .def_119))) (let ((.def_123 (and act_make_treatment@2 true .def_93 .def_8 .def_12))) (let ((.def_124 (= parameter_make_treatment_t@1 1.0))) (let ((.def_125 (and act_make_treatment@1 true .def_97 .def_39 .def_124))) (let ((.def_126 (and .def_125 .def_123))) (let ((.def_127 (not .def_126))) (let ((.def_128 (or .def_125 .def_123))) (let ((.def_129 (= fluent_treated_i0_t0@1 fluent_treated_i0_t0@2))) (let ((.def_130 (not .def_129))) (let ((.def_131 (=> .def_130 .def_128))) (let ((.def_132 (and act_make_treatment@2 true .def_93))) (let ((.def_133 (and act_make_treatment@1 true .def_97))) (let ((.def_134 (and .def_133 .def_132))) (let ((.def_135 (not .def_134))) (let ((.def_136 (and act_make_treatment@2 true))) (let ((.def_137 (and .def_136 .def_132))) (let ((.def_138 (not .def_137))) (let ((.def_139 (and .def_136 .def_133))) (let ((.def_140 (not .def_139))) (let ((.def_141 (or .def_136 .def_133 .def_132))) (let ((.def_142 (= fluent_busy_@1 fluent_busy_@2))) (let ((.def_143 (not .def_142))) (let ((.def_144 (=> .def_143 .def_141))) (let ((.def_145 (and .def_144 .def_140 .def_138 .def_135 .def_131 .def_127 .def_122 .def_118 .def_113 .def_109 .def_104 .def_100 .def_91 .def_87 .def_83 .def_79 .def_75 .def_71 .def_66 .def_62 .def_57 .def_53 .def_48 .def_44 .def_34 .def_30 .def_26 .def_22))) (let ((.def_146 (+ t@1 dur_make_treatment@1))) (let ((.def_147 (<= .def_146 t@2))) (let ((.def_148 (= parameter_make_treatment_next@2 parameter_make_treatment_next@1))) (let ((.def_149 (= parameter_make_treatment_t@2 parameter_make_treatment_t@1))) (let ((.def_150 (= parameter_make_treatment_i@2 parameter_make_treatment_i@1))) (let ((.def_151 (and .def_150 .def_149 .def_148))) (let ((.def_152 (and act_make_treatment@2 act_make_treatment@1 .def_151))) (let ((.def_153 (=> .def_152 .def_147))) (let ((.def_154 (= t@2 t@1))) (let ((.def_155 (and act_make_treatment@2 act_make_treatment@1 .def_154))) (let ((.def_156 (not .def_155))) (let ((.def_157 (+ t@2 dur_make_treatment@2))) (let ((.def_158 (= .def_157 .def_146))) (let ((.def_159 (and act_make_treatment@2 act_make_treatment@1 .def_158))) (let ((.def_160 (not .def_159))) (let ((.def_161 (= t@2 .def_146))) (let ((.def_162 (and act_make_treatment@2 act_make_treatment@1 .def_161))) (let ((.def_163 (not .def_162))) (let ((.def_164 (= .def_92 .def_96))) (let ((.def_165 (and act_make_treatment@2 act_make_treatment@1 .def_164))) (let ((.def_166 (not .def_165))) (let ((.def_167 (= .def_92 t@1))) (let ((.def_168 (and act_make_treatment@2 act_make_treatment@1 .def_167))) (let ((.def_169 (not .def_168))) (let ((.def_170 (= .def_35 .def_40))) (let ((.def_171 (and act_make_treatment@2 act_make_treatment@1 .def_170))) (let ((.def_172 (not .def_171))) (let ((.def_173 (= .def_35 t@1))) (let ((.def_174 (and act_make_treatment@2 act_make_treatment@1 .def_173))) (let ((.def_175 (not .def_174))) (let ((.def_176 (and .def_175 .def_172 .def_169 .def_166 .def_163 .def_160 .def_156))) (let ((.def_177 (< t@1 t@2))) (let ((.def_178 (and .def_8 .def_16))) (let ((.def_179 (ite .def_178 fluent_ready_i0_t1@2 fluent_ready_i0_t0@2))) (let ((.def_180 (and .def_8 .def_15))) (let ((.def_181 (ite .def_180 fluent_ready_i0_t2@2 .def_179))) (let ((.def_182 (and .def_8 .def_14))) (let ((.def_183 (ite .def_182 fluent_ready_i0_t3@2 .def_181))) (let ((.def_184 (= .def_183 true))) (let ((.def_185 (=> true .def_184))) (let ((.def_186 (and .def_36 .def_185))) (let ((.def_187 (= fluent_busy_@2 false))) (let ((.def_188 (=> true .def_187))) (let ((.def_189 (and .def_8 .def_11))) (let ((.def_190 (ite .def_189 fluent_treated_i0_t1@2 fluent_treated_i0_t0@2))) (let ((.def_191 (and .def_8 .def_10))) (let ((.def_192 (ite .def_191 fluent_treated_i0_t2@2 .def_190))) (let ((.def_193 (and .def_8 .def_9))) (let ((.def_194 (ite .def_193 fluent_treated_i0_t3@2 .def_192))) (let ((.def_195 (= .def_194 true))) (let ((.def_196 (=> true .def_195))) (let ((.def_197 (and .def_93 .def_196 .def_188))) (let ((.def_198 (ite .def_189 fluent_started_i0_t1@2 fluent_started_i0_t0@2))) (let ((.def_199 (ite .def_191 fluent_started_i0_t2@2 .def_198))) (let ((.def_200 (ite .def_193 fluent_started_i0_t3@2 .def_199))) (let ((.def_201 (= .def_200 true))) (let ((.def_202 (=> true .def_201))) (let ((.def_203 (= fluent_busy_@2 true))) (let ((.def_204 (=> true .def_203))) (let ((.def_205 (ite .def_11 fluent_counter_t1@1 fluent_counter_t0@1))) (let ((.def_206 (ite .def_10 fluent_counter_t2@1 .def_205))) (let ((.def_207 (ite .def_9 fluent_counter_t3@1 .def_206))) (let ((.def_208 (+ .def_207 1.0))) (let ((.def_209 (ite .def_11 fluent_counter_t1@2 fluent_counter_t0@2))) (let ((.def_210 (ite .def_10 fluent_counter_t2@2 .def_209))) (let ((.def_211 (ite .def_9 fluent_counter_t3@2 .def_210))) (let ((.def_212 (= .def_211 .def_208))) (let ((.def_213 (=> true .def_212))) (let ((.def_214 (= t@2 t@2))) (let ((.def_215 (and .def_214 .def_213 .def_204 .def_202))) (let ((.def_216 (ite .def_178 fluent_started_i0_t1@1 fluent_started_i0_t0@1))) (let ((.def_217 (ite .def_180 fluent_started_i0_t2@1 .def_216))) (let ((.def_218 (ite .def_182 fluent_started_i0_t3@1 .def_217))) (let ((.def_219 (<= .def_157 t@2))) (let ((.def_220 (< t@1 .def_157))) (let ((.def_221 (and .def_220 .def_219))) (let ((.def_222 (=> .def_221 .def_218))) (let ((.def_223 (ite .def_189 fluent_ready_i0_t1@1 fluent_ready_i0_t0@1))) (let ((.def_224 (ite .def_191 fluent_ready_i0_t2@1 .def_223))) (let ((.def_225 (ite .def_193 fluent_ready_i0_t3@1 .def_224))) (let ((.def_226 (ite .def_189 fluent_started_i0_t1@1 fluent_started_i0_t0@1))) (let ((.def_227 (ite .def_191 fluent_started_i0_t2@1 .def_226))) (let ((.def_228 (ite .def_193 fluent_started_i0_t3@1 .def_227))) (let ((.def_229 (not .def_228))) (let ((.def_230 (ite .def_189 fluent_treated_i0_t1@1 fluent_treated_i0_t0@1))) (let ((.def_231 (ite .def_191 fluent_treated_i0_t2@1 .def_230))) (let ((.def_232 (ite .def_193 fluent_treated_i0_t3@1 .def_231))) (let ((.def_233 (not .def_232))) (let ((.def_234 (not fluent_busy_@1))) (let ((.def_235 (and .def_11 .def_17))) (let ((.def_236 (ite .def_235 false false))) (let ((.def_237 (and .def_10 .def_17))) (let ((.def_238 (ite .def_237 false .def_236))) (let ((.def_239 (and .def_9 .def_17))) (let ((.def_240 (ite .def_239 false .def_238))) (let ((.def_241 (and .def_12 .def_16))) (let ((.def_242 (ite .def_241 true .def_240))) (let ((.def_243 (and .def_11 .def_16))) (let ((.def_244 (ite .def_243 false .def_242))) (let ((.def_245 (and .def_10 .def_16))) (let ((.def_246 (ite .def_245 false .def_244))) (let ((.def_247 (and .def_9 .def_16))) (let ((.def_248 (ite .def_247 false .def_246))) (let ((.def_249 (and .def_12 .def_15))) (let ((.def_250 (ite .def_249 false .def_248))) (let ((.def_251 (and .def_11 .def_15))) (let ((.def_252 (ite .def_251 true .def_250))) (let ((.def_253 (and .def_10 .def_15))) (let ((.def_254 (ite .def_253 false .def_252))) (let ((.def_255 (and .def_9 .def_15))) (let ((.def_256 (ite .def_255 false .def_254))) (let ((.def_257 (and .def_12 .def_14))) (let ((.def_258 (ite .def_257 false .def_256))) (let ((.def_259 (and .def_11 .def_14))) (let ((.def_260 (ite .def_259 false .def_258))) (let ((.def_261 (and .def_10 .def_14))) (let ((.def_262 (ite .def_261 true .def_260))) (let ((.def_263 (and .def_9 .def_14))) (let ((.def_264 (ite .def_263 false .def_262))) (let ((.def_265 (= 0.0 .def_207))) (let ((.def_266 (and .def_265 .def_264 .def_234 .def_233 .def_229 .def_225))) (let ((.def_267 (<= t@2 t@2))) (let ((.def_268 (and .def_177 .def_267))) (let ((.def_269 (=> .def_268 .def_266))) (let ((.def_270 (<= dur_make_treatment@2 15.0))) (let ((.def_271 (<= 15.0 dur_make_treatment@2))) (let ((.def_272 (and .def_271 .def_270))) (let ((.def_273 (and .def_272 .def_219 .def_269 .def_222 .def_215 .def_197 .def_186))) (let ((.def_274 (=> act_make_treatment@2 .def_273))) (let ((.def_275 (<= fluent_counter_t3@1 31.0))) (let ((.def_276 (<= 0.0 fluent_counter_t3@1))) (let ((.def_277 (<= fluent_counter_t2@1 31.0))) (let ((.def_278 (<= 0.0 fluent_counter_t2@1))) (let ((.def_279 (or .def_124 .def_115 .def_106 .def_95))) (let ((.def_280 (<= fluent_counter_t1@1 31.0))) (let ((.def_281 (<= 0.0 fluent_counter_t1@1))) (let ((.def_282 (<= fluent_counter_t0@1 31.0))) (let ((.def_283 (<= 0.0 fluent_counter_t0@1))) (let ((.def_284 (or .def_68 .def_59 .def_50 .def_38))) (let ((.def_285 (and act_make_treatment@1 true .def_95))) (let ((.def_286 (= fluent_counter_t3@0 fluent_counter_t3@1))) (let ((.def_287 (not .def_286))) (let ((.def_288 (=> .def_287 .def_285))) (let ((.def_289 (and act_make_treatment@1 true .def_106))) (let ((.def_290 (= fluent_counter_t2@0 fluent_counter_t2@1))) (let ((.def_291 (not .def_290))) (let ((.def_292 (=> .def_291 .def_289))) (let ((.def_293 (and act_make_treatment@1 true .def_115))) (let ((.def_294 (= fluent_counter_t1@0 fluent_counter_t1@1))) (let ((.def_295 (not .def_294))) (let ((.def_296 (=> .def_295 .def_293))) (let ((.def_297 (and act_make_treatment@1 true .def_124))) (let ((.def_298 (= fluent_counter_t0@0 fluent_counter_t0@1))) (let ((.def_299 (not .def_298))) (let ((.def_300 (=> .def_299 .def_297))) (let ((.def_301 (= t@1 .def_40))) (let ((.def_302 (and act_make_treatment@1 true .def_301 .def_39 .def_38))) (let ((.def_303 (= fluent_ready_i0_t3@0 fluent_ready_i0_t3@1))) (let ((.def_304 (not .def_303))) (let ((.def_305 (=> .def_304 .def_302))) (let ((.def_306 (and act_make_treatment@1 true .def_301 .def_39 .def_50))) (let ((.def_307 (= fluent_ready_i0_t2@0 fluent_ready_i0_t2@1))) (let ((.def_308 (not .def_307))) (let ((.def_309 (=> .def_308 .def_306))) (let ((.def_310 (and act_make_treatment@1 true .def_301 .def_39 .def_59))) (let ((.def_311 (= fluent_ready_i0_t1@0 fluent_ready_i0_t1@1))) (let ((.def_312 (not .def_311))) (let ((.def_313 (=> .def_312 .def_310))) (let ((.def_314 (and act_make_treatment@1 true .def_301 .def_39 .def_68))) (let ((.def_315 (= fluent_ready_i0_t0@0 fluent_ready_i0_t0@1))) (let ((.def_316 (not .def_315))) (let ((.def_317 (=> .def_316 .def_314))) (let ((.def_318 (and act_make_treatment@1 true .def_39 .def_95))) (let ((.def_319 (= fluent_started_i0_t3@0 fluent_started_i0_t3@1))) (let ((.def_320 (not .def_319))) (let ((.def_321 (=> .def_320 .def_318))) (let ((.def_322 (and act_make_treatment@1 true .def_39 .def_106))) (let ((.def_323 (= fluent_started_i0_t2@0 fluent_started_i0_t2@1))) (let ((.def_324 (not .def_323))) (let ((.def_325 (=> .def_324 .def_322))) (let ((.def_326 (and act_make_treatment@1 true .def_39 .def_115))) (let ((.def_327 (= fluent_started_i0_t1@0 fluent_started_i0_t1@1))) (let ((.def_328 (not .def_327))) (let ((.def_329 (=> .def_328 .def_326))) (let ((.def_330 (and act_make_treatment@1 true .def_39 .def_124))) (let ((.def_331 (= fluent_started_i0_t0@0 fluent_started_i0_t0@1))) (let ((.def_332 (not .def_331))) (let ((.def_333 (=> .def_332 .def_330))) (let ((.def_334 (= t@1 .def_96))) (let ((.def_335 (and act_make_treatment@1 true .def_334 .def_39 .def_95))) (let ((.def_336 (= fluent_treated_i0_t3@0 fluent_treated_i0_t3@1))) (let ((.def_337 (not .def_336))) (let ((.def_338 (=> .def_337 .def_335))) (let ((.def_339 (and act_make_treatment@1 true .def_334 .def_39 .def_106))) (let ((.def_340 (= fluent_treated_i0_t2@0 fluent_treated_i0_t2@1))) (let ((.def_341 (not .def_340))) (let ((.def_342 (=> .def_341 .def_339))) (let ((.def_343 (and act_make_treatment@1 true .def_334 .def_39 .def_115))) (let ((.def_344 (= fluent_treated_i0_t1@0 fluent_treated_i0_t1@1))) (let ((.def_345 (not .def_344))) (let ((.def_346 (=> .def_345 .def_343))) (let ((.def_347 (and act_make_treatment@1 true .def_334 .def_39 .def_124))) (let ((.def_348 (= fluent_treated_i0_t0@0 fluent_treated_i0_t0@1))) (let ((.def_349 (not .def_348))) (let ((.def_350 (=> .def_349 .def_347))) (let ((.def_351 (and act_make_treatment@1 true .def_334))) (let ((.def_352 (and act_make_treatment@1 true))) (let ((.def_353 (and .def_352 .def_351))) (let ((.def_354 (not .def_353))) (let ((.def_355 (or .def_352 .def_351))) (let ((.def_356 (= fluent_busy_@0 fluent_busy_@1))) (let ((.def_357 (not .def_356))) (let ((.def_358 (=> .def_357 .def_355))) (let ((.def_359 (and .def_358 .def_354 .def_350 .def_346 .def_342 .def_338 .def_333 .def_329 .def_325 .def_321 .def_317 .def_313 .def_309 .def_305 .def_300 .def_296 .def_292 .def_288))) (let ((.def_360 (= t@1 t@2))) (let ((.def_361 (and act_make_treatment@1 act_make_treatment@2 .def_360))) (let ((.def_362 (not .def_361))) (let ((.def_363 (= .def_146 .def_157))) (let ((.def_364 (and act_make_treatment@1 act_make_treatment@2 .def_363))) (let ((.def_365 (not .def_364))) (let ((.def_366 (= t@1 .def_157))) (let ((.def_367 (and act_make_treatment@1 act_make_treatment@2 .def_366))) (let ((.def_368 (not .def_367))) (let ((.def_369 (= .def_96 .def_92))) (let ((.def_370 (and act_make_treatment@1 act_make_treatment@2 .def_369))) (let ((.def_371 (not .def_370))) (let ((.def_372 (= .def_96 t@2))) (let ((.def_373 (and act_make_treatment@1 act_make_treatment@2 .def_372))) (let ((.def_374 (not .def_373))) (let ((.def_375 (= .def_40 .def_35))) (let ((.def_376 (and act_make_treatment@1 act_make_treatment@2 .def_375))) (let ((.def_377 (not .def_376))) (let ((.def_378 (= .def_40 t@2))) (let ((.def_379 (and act_make_treatment@1 act_make_treatment@2 .def_378))) (let ((.def_380 (not .def_379))) (let ((.def_381 (and .def_380 .def_377 .def_374 .def_371 .def_368 .def_365 .def_362))) (let ((.def_382 (<= 0.0 t@1))) (let ((.def_383 (and .def_39 .def_59))) (let ((.def_384 (ite .def_383 fluent_ready_i0_t1@2 fluent_ready_i0_t0@2))) (let ((.def_385 (and .def_39 .def_50))) (let ((.def_386 (ite .def_385 fluent_ready_i0_t2@2 .def_384))) (let ((.def_387 (and .def_39 .def_38))) (let ((.def_388 (ite .def_387 fluent_ready_i0_t3@2 .def_386))) (let ((.def_389 (= .def_388 true))) (let ((.def_390 (=> true .def_389))) (let ((.def_391 (and .def_41 .def_390))) (let ((.def_392 (ite .def_383 fluent_ready_i0_t1@1 fluent_ready_i0_t0@1))) (let ((.def_393 (ite .def_385 fluent_ready_i0_t2@1 .def_392))) (let ((.def_394 (ite .def_387 fluent_ready_i0_t3@1 .def_393))) (let ((.def_395 (= .def_394 true))) (let ((.def_396 (=> true .def_395))) (let ((.def_397 (and .def_301 .def_396))) (let ((.def_398 (or .def_397 .def_391))) (let ((.def_399 (and .def_39 .def_115))) (let ((.def_400 (ite .def_399 fluent_treated_i0_t1@2 fluent_treated_i0_t0@2))) (let ((.def_401 (and .def_39 .def_106))) (let ((.def_402 (ite .def_401 fluent_treated_i0_t2@2 .def_400))) (let ((.def_403 (and .def_39 .def_95))) (let ((.def_404 (ite .def_403 fluent_treated_i0_t3@2 .def_402))) (let ((.def_405 (= .def_404 true))) (let ((.def_406 (=> true .def_405))) (let ((.def_407 (and .def_97 .def_406 .def_188))) (let ((.def_408 (= fluent_busy_@1 false))) (let ((.def_409 (=> true .def_408))) (let ((.def_410 (ite .def_399 fluent_treated_i0_t1@1 fluent_treated_i0_t0@1))) (let ((.def_411 (ite .def_401 fluent_treated_i0_t2@1 .def_410))) (let ((.def_412 (ite .def_403 fluent_treated_i0_t3@1 .def_411))) (let ((.def_413 (= .def_412 true))) (let ((.def_414 (=> true .def_413))) (let ((.def_415 (and .def_334 .def_414 .def_409))) (let ((.def_416 (or .def_415 .def_407))) (let ((.def_417 (ite .def_399 fluent_started_i0_t1@1 fluent_started_i0_t0@1))) (let ((.def_418 (ite .def_401 fluent_started_i0_t2@1 .def_417))) (let ((.def_419 (ite .def_403 fluent_started_i0_t3@1 .def_418))) (let ((.def_420 (= .def_419 true))) (let ((.def_421 (=> true .def_420))) (let ((.def_422 (= fluent_busy_@1 true))) (let ((.def_423 (=> true .def_422))) (let ((.def_424 (ite .def_115 fluent_counter_t1@0 fluent_counter_t0@0))) (let ((.def_425 (ite .def_106 fluent_counter_t2@0 .def_424))) (let ((.def_426 (ite .def_95 fluent_counter_t3@0 .def_425))) (let ((.def_427 (+ .def_426 1.0))) (let ((.def_428 (ite .def_115 fluent_counter_t1@1 fluent_counter_t0@1))) (let ((.def_429 (ite .def_106 fluent_counter_t2@1 .def_428))) (let ((.def_430 (ite .def_95 fluent_counter_t3@1 .def_429))) (let ((.def_431 (= .def_430 .def_427))) (let ((.def_432 (=> true .def_431))) (let ((.def_433 (= t@1 t@1))) (let ((.def_434 (and .def_433 .def_432 .def_423 .def_421))) (let ((.def_435 (ite .def_383 fluent_started_i0_t1@1 fluent_started_i0_t0@1))) (let ((.def_436 (ite .def_385 fluent_started_i0_t2@1 .def_435))) (let ((.def_437 (ite .def_387 fluent_started_i0_t3@1 .def_436))) (let ((.def_438 (< t@1 .def_146))) (let ((.def_439 (and .def_438 .def_147))) (let ((.def_440 (=> .def_439 .def_437))) (let ((.def_441 (ite .def_383 fluent_started_i0_t1@0 fluent_started_i0_t0@0))) (let ((.def_442 (ite .def_385 fluent_started_i0_t2@0 .def_441))) (let ((.def_443 (ite .def_387 fluent_started_i0_t3@0 .def_442))) (let ((.def_444 (<= .def_146 t@1))) (let ((.def_445 (< (- 1.0) .def_146))) (let ((.def_446 (and .def_445 .def_444))) (let ((.def_447 (=> .def_446 .def_443))) (let ((.def_448 (ite .def_399 fluent_ready_i0_t1@1 fluent_ready_i0_t0@1))) (let ((.def_449 (ite .def_401 fluent_ready_i0_t2@1 .def_448))) (let ((.def_450 (ite .def_403 fluent_ready_i0_t3@1 .def_449))) (let ((.def_451 (not .def_419))) (let ((.def_452 (not .def_412))) (let ((.def_453 (and .def_115 .def_68))) (let ((.def_454 (ite .def_453 false false))) (let ((.def_455 (and .def_106 .def_68))) (let ((.def_456 (ite .def_455 false .def_454))) (let ((.def_457 (and .def_95 .def_68))) (let ((.def_458 (ite .def_457 false .def_456))) (let ((.def_459 (and .def_124 .def_59))) (let ((.def_460 (ite .def_459 true .def_458))) (let ((.def_461 (and .def_115 .def_59))) (let ((.def_462 (ite .def_461 false .def_460))) (let ((.def_463 (and .def_106 .def_59))) (let ((.def_464 (ite .def_463 false .def_462))) (let ((.def_465 (and .def_95 .def_59))) (let ((.def_466 (ite .def_465 false .def_464))) (let ((.def_467 (and .def_124 .def_50))) (let ((.def_468 (ite .def_467 false .def_466))) (let ((.def_469 (and .def_115 .def_50))) (let ((.def_470 (ite .def_469 true .def_468))) (let ((.def_471 (and .def_106 .def_50))) (let ((.def_472 (ite .def_471 false .def_470))) (let ((.def_473 (and .def_95 .def_50))) (let ((.def_474 (ite .def_473 false .def_472))) (let ((.def_475 (and .def_124 .def_38))) (let ((.def_476 (ite .def_475 false .def_474))) (let ((.def_477 (and .def_115 .def_38))) (let ((.def_478 (ite .def_477 false .def_476))) (let ((.def_479 (and .def_106 .def_38))) (let ((.def_480 (ite .def_479 true .def_478))) (let ((.def_481 (and .def_95 .def_38))) (let ((.def_482 (ite .def_481 false .def_480))) (let ((.def_483 (= 0.0 .def_430))) (let ((.def_484 (and .def_483 .def_482 .def_234 .def_452 .def_451 .def_450))) (let ((.def_485 (<= t@1 t@2))) (let ((.def_486 (< t@1 t@1))) (let ((.def_487 (and .def_486 .def_485))) (let ((.def_488 (=> .def_487 .def_484))) (let ((.def_489 (ite .def_399 fluent_ready_i0_t1@0 fluent_ready_i0_t0@0))) (let ((.def_490 (ite .def_401 fluent_ready_i0_t2@0 .def_489))) (let ((.def_491 (ite .def_403 fluent_ready_i0_t3@0 .def_490))) (let ((.def_492 (ite .def_399 fluent_started_i0_t1@0 fluent_started_i0_t0@0))) (let ((.def_493 (ite .def_401 fluent_started_i0_t2@0 .def_492))) (let ((.def_494 (ite .def_403 fluent_started_i0_t3@0 .def_493))) (let ((.def_495 (not .def_494))) (let ((.def_496 (ite .def_399 fluent_treated_i0_t1@0 fluent_treated_i0_t0@0))) (let ((.def_497 (ite .def_401 fluent_treated_i0_t2@0 .def_496))) (let ((.def_498 (ite .def_403 fluent_treated_i0_t3@0 .def_497))) (let ((.def_499 (not .def_498))) (let ((.def_500 (not fluent_busy_@0))) (let ((.def_501 (= 0.0 .def_426))) (let ((.def_502 (and .def_501 .def_482 .def_500 .def_499 .def_495 .def_491))) (let ((.def_503 (<= t@1 t@1))) (let ((.def_504 (< (- 1.0) t@1))) (let ((.def_505 (and .def_504 .def_503))) (let ((.def_506 (=> .def_505 .def_502))) (let ((.def_507 (<= dur_make_treatment@1 15.0))) (let ((.def_508 (<= 15.0 dur_make_treatment@1))) (let ((.def_509 (and .def_508 .def_507))) (let ((.def_510 (and .def_509 .def_147 .def_506 .def_488 .def_447 .def_440 .def_434 .def_416 .def_398))) (let ((.def_511 (=> act_make_treatment@1 .def_510))) (let ((.def_512 (<= fluent_counter_t3@0 31.0))) (let ((.def_513 (<= 0.0 fluent_counter_t3@0))) (let ((.def_514 (<= fluent_counter_t2@0 31.0))) (let ((.def_515 (<= 0.0 fluent_counter_t2@0))) (let ((.def_516 (<= fluent_counter_t1@0 31.0))) (let ((.def_517 (<= 0.0 fluent_counter_t1@0))) (let ((.def_518 (<= fluent_counter_t0@0 31.0))) (let ((.def_519 (<= 0.0 fluent_counter_t0@0))) (let ((.def_520 (= fluent_counter_t3@0 0.0))) (let ((.def_521 (= fluent_counter_t2@0 0.0))) (let ((.def_522 (= fluent_counter_t1@0 0.0))) (let ((.def_523 (= fluent_counter_t0@0 0.0))) (let ((.def_524 (= false false))) (let ((.def_525 (= fluent_ready_i0_t3@0 false))) (let ((.def_526 (= fluent_ready_i0_t2@0 false))) (let ((.def_527 (= fluent_ready_i0_t1@0 false))) (let ((.def_528 (= fluent_started_i0_t2@0 false))) (let ((.def_529 (= fluent_started_i0_t1@0 false))) (let ((.def_530 (= fluent_started_i0_t0@0 false))) (let ((.def_531 (= fluent_treated_i0_t3@0 false))) (let ((.def_532 (= fluent_treated_i0_t2@0 false))) (let ((.def_533 (= fluent_treated_i0_t1@0 false))) (let ((.def_534 (= fluent_treated_i0_t0@0 false))) (let ((.def_535 (= fluent_busy_@0 false))) (let ((.def_536 (= fluent_ready_i0_t0@0 true))) (let ((.def_537 (= fluent_started_i0_t3@0 true))) (let ((.def_538 (= true true))) (let ((.def_539 (= 0.0 0.0))) (let ((.def_540 (and .def_539 .def_538 .def_538 .def_538 .def_537 .def_536 .def_535 .def_534 .def_533 .def_532 .def_531 .def_530 .def_529 .def_528 .def_527 .def_526 .def_525 .def_524 .def_524 .def_524 .def_524 .def_524 .def_524 .def_524 .def_524 .def_524 .def_524 .def_524 .def_524 .def_524 .def_523 .def_522 .def_521 .def_520 .def_519 .def_518 .def_517 .def_516 .def_515 .def_514 .def_513 .def_512))) (let ((.def_541 (and .def_540 .def_511 .def_382 true .def_381 true .def_359 .def_284 .def_283 .def_282 .def_281 .def_280 .def_279 .def_278 .def_39 .def_277 .def_276 .def_275 .def_274 .def_177 .def_176 true .def_153 .def_145 .def_18 .def_13 .def_8 .def_7 .def_6 .def_5 .def_4 .def_3 .def_2 .def_1 .def_0 true))) .def_541)))))))))))))))))))))))))))))))))))))))))))))))))))))))))))))))))))))))))))))))))))))))))))))))))))))))))))))))))))))))))))))))))))))))))))))))))))))))))))))))))))))))))))))))))))))))))))))))))))))))))))))))))))))))))))))))))))))))))))))))))))))))))))))))))))))))))))))))))))))))))))))))))))))))))))))))))))))))))))))))))))))))))))))))))))))))))))))))))))))))))))))))))))))))))))))))))))))))))))))))))))))))))))))))))))))))))))))))))))))))))))))))))))))))))))))))))))))))))))))))))))))))))))))))))))))))))))))))))))))))))))))))))))))))))))))))
(check-sat)
